
List of user-set options:

                                    Name   Value                used
                           compl_inf_tol = 1                     yes
                         constr_viol_tol = 1                     yes
                            dual_inf_tol = 1000                  yes
                           linear_solver = ma97                  yes
                              ma86_small = 1e-30                  no
                                  ma86_u = 0.0001                 no
                              ma97_order = best                  yes
                              ma97_small = 1e-30                 yes
                            ma97_switch1 = at_start              yes
                            ma97_switch2 = od_hd_reuse           yes
                                  ma97_u = 1e-06                 yes
                               ma97_umax = 0.5                   yes
                                max_iter = 1000                  yes
                    max_refinement_steps = 20                    yes
                    min_refinement_steps = 5                     yes
                                 mu_init = 1e-06                 yes
           mu_superlinear_decrease_power = 1.25                  yes
                   nlp_scaling_min_value = 1e-08                 yes
                        option_file_name = Preset_Case:_270_NCP.opt  yes
                             output_file = ./tmp/Preset_Case:_270_NCP.output  yes
                      print_user_options = yes                   yes
        required_infeasibility_reduction = 1                      no
                                     tol = 1e-08                 yes
                   warm_start_bound_frac = 1e-20                 yes
                   warm_start_bound_push = 1e-20                 yes
                   warm_start_init_point = yes                   yes
              warm_start_mult_bound_push = 1e-20                 yes
                warm_start_mult_init_max = 1e+40                 yes
             warm_start_slack_bound_frac = 1e-20                 yes
             warm_start_slack_bound_push = 1e-20                 yes

******************************************************************************
This program contains Ipopt, a library for large-scale nonlinear optimization.
 Ipopt is released as open source code under the Eclipse Public License (EPL).
         For more information visit http://projects.coin-or.org/Ipopt
******************************************************************************

This is Ipopt version 3.12.10, running with linear solver ma97.

Number of nonzeros in equality constraint Jacobian...:   117167
Number of nonzeros in inequality constraint Jacobian.:      213
Number of nonzeros in Lagrangian Hessian.............:    47513

Total number of variables............................:    29977
                     variables with only lower bounds:    11312
                variables with lower and upper bounds:    15135
                     variables with only upper bounds:        0
Total number of equality constraints.................:    29864
Total number of inequality constraints...............:       25
        inequality constraints with only lower bounds:        4
   inequality constraints with lower and upper bounds:        0
        inequality constraints with only upper bounds:       21

iter    objective    inf_pr   inf_du lg(mu)  ||d||  lg(rg) alpha_du alpha_pr  ls
   0 -1.4548646e-01 4.95e-01 2.00e+00  -6.0 0.00e+00    -  0.00e+00 0.00e+00   0
In iteration 0, 9 Slacks too small, adjusting variable bounds
   1 -1.4548646e-01 4.95e-01 1.01e+02  -6.0 1.05e+10    -  1.00e-14 4.23e-19h  1
   2 -1.4548425e-01 4.95e-01 1.01e+02  -6.0 2.48e+02    -  9.60e-08 3.57e-05f  1
   3 -1.4548424e-01 4.95e-01 1.04e+02  -6.0 6.13e+01    -  1.32e-02 6.25e-07h  2
   4 -1.4548237e-01 4.95e-01 1.04e+02  -6.0 2.38e+02    -  3.86e-05 3.11e-05h  1
   5 -1.4525030e-01 4.93e-01 1.09e+02  -6.0 1.54e+02    -  2.96e-02 4.94e-03h  1
   6 -1.4428934e-01 4.85e-01 1.05e+02  -6.0 2.52e+02    -  4.87e-03 1.58e-02h  3
   7 -1.4333382e-01 4.76e-01 1.05e+02  -6.0 1.84e+02    -  2.60e-02 1.80e-02h  3
   8 -1.4199792e-01 4.64e-01 1.18e+02  -6.0 1.88e+02    -  8.46e-02 2.57e-02h  3
   9 -1.4083459e-01 4.53e-01 1.21e+02  -6.0 1.80e+02    -  4.71e-02 2.37e-02h  3
iter    objective    inf_pr   inf_du lg(mu)  ||d||  lg(rg) alpha_du alpha_pr  ls
  10 -1.3968868e-01 4.43e-01 1.59e+02  -6.0 1.86e+02    -  1.44e-01 2.25e-02h  3
  11 -1.3874511e-01 4.34e-01 2.00e+02  -6.0 1.71e+02    -  1.41e-01 2.05e-02h  3
  12 -1.3776638e-01 4.25e-01 2.35e+02  -6.0 1.79e+02    -  1.72e-01 2.05e-02h  3
  13 -1.3677186e-01 4.16e-01 2.38e+02  -6.0 1.88e+02    -  6.92e-02 2.04e-02h  3
  14 -1.3587729e-01 4.09e-01 4.67e+02  -6.0 1.87e+02    -  2.13e-01 1.87e-02h  3
  15 -1.3489702e-01 4.01e-01 1.43e+03  -6.0 2.13e+02    -  1.72e-01 1.94e-02h  3
  16 -1.3076486e-01 3.69e-01 3.07e+03  -6.0 2.35e+02    -  1.73e-01 8.01e-02w  1
  17 -1.2266680e-01 4.73e-01 2.66e+05  -6.0 2.34e+02    -  9.56e-02 1.76e-01w  1
  18 -1.2263971e-01 4.73e-01 3.44e+05  -6.0 4.54e+02    -  1.67e-02 6.43e-04w  1
  19 -1.3386398e-01 3.93e-01 4.27e+03  -6.0 4.47e+02    -  1.73e-01 2.00e-02h  2
iter    objective    inf_pr   inf_du lg(mu)  ||d||  lg(rg) alpha_du alpha_pr  ls
  20 -1.3325836e-01 3.88e-01 9.75e+03  -6.0 3.36e+02    -  1.29e-01 1.17e-02h  4
  21 -1.3241265e-01 3.82e-01 1.62e+04  -6.0 4.19e+02    -  1.06e-01 1.63e-02h  4
  22 -1.3167797e-01 3.76e-01 2.13e+04  -6.0 4.64e+02    -  1.00e-01 1.44e-02h  4
  23 -1.3118169e-01 3.73e-01 2.06e+04  -6.0 4.99e+02    -  9.59e-02 9.84e-03h  4
  24 -1.3045915e-01 3.67e-01 1.52e+04  -6.0 5.39e+02    -  1.07e-01 1.45e-02h  3
  25 -1.2997788e-01 3.64e-01 6.32e+03  -6.0 5.64e+02    -  1.13e-01 9.77e-03h  3
  26 -1.2963948e-01 3.61e-01 1.14e+03  -6.0 6.05e+02    -  1.46e-01 6.98e-03h  3
  27 -1.2935558e-01 3.59e-01 1.14e+03  -6.0 6.60e+02    -  1.54e-01 5.96e-03h  3
  28 -1.2905695e-01 3.57e-01 1.05e+03  -6.0 6.70e+02    -  1.45e-01 6.16e-03h  4
  29 -1.2250189e-01 1.08e+00 1.64e+03  -6.0 6.88e+02    -  1.23e-01 1.37e-01w  1
iter    objective    inf_pr   inf_du lg(mu)  ||d||  lg(rg) alpha_du alpha_pr  ls
  30 -1.2093653e-01 1.38e+00 1.97e+04  -6.0 1.05e+04    -  2.77e-07 3.25e-03w  1
  31 -1.1898172e-01 1.90e+00 1.95e+04  -6.0 5.23e+03    -  3.64e-03 7.95e-03w  1
  32 -1.2864726e-01 3.54e-01 9.08e+02  -6.0 6.63e+02    -  1.23e-01 8.53e-03h  4
  33 -1.2824559e-01 3.51e-01 8.12e+02  -6.0 6.96e+02    -  1.43e-01 8.50e-03h  5
  34 -1.2784274e-01 3.48e-01 1.12e+03  -6.0 6.99e+02    -  1.21e-01 8.61e-03h  5
  35 -1.2762726e-01 3.46e-01 1.20e+03  -6.0 7.97e+02    -  1.75e-02 4.23e-03h  6
  36 -1.2740567e-01 3.45e-01 1.91e+03  -6.0 7.98e+02    -  1.63e-01 3.82e-03h  6
  37 -1.2707547e-01 3.43e-01 1.93e+03  -6.0 1.04e+03    -  7.16e-03 4.81e-03h  5
  38 -1.2676198e-01 3.42e-01 3.39e+03  -6.0 1.03e+03    -  1.42e-01 4.50e-03h  5
  39 -1.2650736e-01 3.40e-01 3.57e+03  -6.0 1.27e+03    -  1.20e-02 3.14e-03h  5
iter    objective    inf_pr   inf_du lg(mu)  ||d||  lg(rg) alpha_du alpha_pr  ls
  40 -1.2626842e-01 3.40e-01 6.47e+03  -6.0 1.27e+03    -  1.52e-01 2.89e-03h  5
  41 -1.2587286e-01 3.38e-01 6.83e+03  -6.0 1.56e+03    -  1.38e-02 4.21e-03h  4
  42 -1.2308969e-01 3.28e-01 1.09e+04  -6.0 1.56e+03    -  1.42e-01 2.90e-02w  1
  43 -1.1872239e-01 4.16e-01 1.01e+04  -6.0 1.46e+03    -  5.83e-02 3.61e-02w  1
  44 -1.1561356e-01 3.71e+00 9.97e+03  -6.0 2.49e+03    -  3.41e-02 3.49e-02w  1
  45 -1.2569891e-01 3.37e-01 1.21e+04  -6.0 4.58e+03    -  1.42e-01 1.81e-03h  4
  46 -1.2554909e-01 3.37e-01 1.32e+04  -6.0 1.86e+03    -  1.73e-02 1.46e-03h  5
  47 -1.2540594e-01 3.37e-01 2.35e+04  -6.0 1.89e+03    -  1.38e-01 1.38e-03h  5
  48 -1.2523215e-01 3.36e-01 2.60e+04  -6.0 2.18e+03    -  1.92e-02 1.60e-03h  5
  49 -1.2502149e-01 3.35e-01 4.74e+04  -6.0 2.19e+03    -  1.47e-01 1.88e-03h  5
iter    objective    inf_pr   inf_du lg(mu)  ||d||  lg(rg) alpha_du alpha_pr  ls
  50 -1.2487414e-01 3.35e-01 5.35e+04  -6.0 2.51e+03    -  2.43e-02 1.25e-03h  6
  51 -1.2472939e-01 3.35e-01 1.07e+05  -6.0 2.56e+03    -  1.80e-01 1.22e-03h  6
  52 -1.2459146e-01 3.34e-01 1.28e+05  -6.0 3.16e+03    -  3.31e-02 1.33e-03h  6
  53 -1.2445313e-01 3.34e-01 2.90e+05  -6.0 3.31e+03    -  2.15e-01 1.45e-03h  6
  54 -1.2442098e-01 3.33e-01 5.12e+05  -6.0 4.28e+03    -  1.22e-01 7.02e-04h  8
  55 -1.2151914e-01 8.31e+00 9.00e+05  -6.0 4.59e+03    -  2.88e-01 1.42e-01w  1
  56 -1.2093852e-01 8.16e+00 7.82e+05  -6.0 5.84e+02  -4.0 2.03e-02 1.84e-02w  1
  57 -1.2461110e-01 8.05e+00 3.73e+06  -6.0 2.52e+03  -4.5 1.76e-03 1.58e-02w  1
  58 -1.2440965e-01 3.33e-01 1.41e+06  -6.0 2.93e+03  -4.1 2.88e-01 5.56e-04h  8
  59 -1.2443634e-01 3.33e-01 2.15e+06  -6.0 8.09e+03    -  1.01e-01 4.82e-04h  8
iter    objective    inf_pr   inf_du lg(mu)  ||d||  lg(rg) alpha_du alpha_pr  ls
  60 -1.2446272e-01 3.33e-01 2.47e+06  -6.0 1.65e+04    -  3.33e-02 1.47e-04h  8
  61 -1.2449168e-01 3.33e-01 2.91e+06  -6.0 1.75e+04    -  4.33e-02 1.52e-04h  8
  62 -1.2453335e-01 3.33e-01 4.44e+06  -6.0 1.06e+04    -  1.39e-01 4.70e-04h  8
  63 -1.2455991e-01 3.33e-01 6.85e+06  -6.0 9.27e+03    -  1.84e-01 4.02e-04h  9
  64 -1.2552658e-01 3.42e+00 6.99e+06  -6.0 2.64e+04    -  7.77e-02 4.25e-02h  1
  65 -1.2503158e-01 3.40e+00 6.93e+06  -6.0 4.38e+02  -4.5 9.39e-05 6.32e-03h  3
  66 -1.2471461e-01 3.39e+00 6.69e+06  -6.0 1.10e+03  -5.0 7.04e-02 3.88e-03h  3
  67 -1.2470147e-01 3.39e+00 6.21e+06  -6.0 2.70e+03  -5.5 1.29e-01 1.55e-04h  5
  68 -1.2469853e-01 3.39e+00 6.12e+06  -6.0 8.02e+03  -6.0 2.28e-02 2.70e-05h  9
  69 -1.2469121e-01 3.39e+00 6.90e+06  -6.0 3.82e+03  -5.5 1.65e-01 2.95e-05h 10
iter    objective    inf_pr   inf_du lg(mu)  ||d||  lg(rg) alpha_du alpha_pr  ls
  70 -1.2454772e-01 3.39e+00 6.84e+06  -6.0 9.35e+03  -6.0 2.05e-02 1.49e-03h  3
  71 -1.2349418e-01 3.37e+00 7.18e+06  -6.0 4.01e+03  -5.6 6.60e-02 6.31e-03h  2
  72 -1.2291990e-01 3.36e+00 7.16e+06  -6.0 1.42e+04  -6.1 1.87e-03 1.72e-03h  4
  73 -1.2193692e-01 3.33e+00 7.31e+06  -6.0 4.71e+03  -5.6 6.47e-02 5.53e-03h  3
  74 -1.2143904e-01 3.32e+00 7.24e+06  -6.0 2.38e+04  -6.1 4.52e-03 1.20e-03h  6
  75 -1.1027798e-01 3.62e+00 6.75e+06  -6.0 5.08e+03  -5.7 5.16e-02 6.84e-02w  1
  76 -9.8678570e-02 5.25e+00 5.37e+06  -6.0 2.03e+03  -5.3 1.07e-01 8.10e-02w  1
  77 -9.8678722e-02 5.25e+00 5.37e+06  -6.0 6.67e+01   0.6 1.23e-05 1.82e-05w  1
  78 -1.2004391e-01 3.25e+00 7.17e+06  -6.0 6.47e+01   0.1 5.16e-02 8.55e-03h  3
  79 -1.2004530e-01 3.25e+00 7.23e+06  -6.0 5.84e+01  -0.4 5.60e-04 3.57e-04h  1
iter    objective    inf_pr   inf_du lg(mu)  ||d||  lg(rg) alpha_du alpha_pr  ls
  80 -1.1994932e-01 3.20e+00 3.99e+06  -6.0 5.57e+01  -0.8 2.27e-05 1.24e-02h  1
  81 -1.1950854e-01 3.08e+00 1.54e+06  -6.0 5.49e+01  -1.3 1.21e-02 3.58e-02h  1
  82 -1.1900568e-01 3.01e+00 2.07e+07  -6.0 5.59e+01  -1.8 1.25e-01 2.10e-02h  1
  83 -1.1900567e-01 3.01e+00 3.45e+07  -6.0 8.02e+01  -2.3 1.48e-01 1.16e-07h  2
  84 -1.1243820e-01 2.67e+00 3.23e+07  -6.0 1.93e+02  -2.8 1.18e-01 8.80e-02h  1
  85 -1.0600648e-01 2.20e+00 1.84e+07  -6.0 1.38e+02  -2.3 1.05e-01 2.15e-01h  1
  86r-1.0600648e-01 2.20e+00 1.00e+03  -0.1 0.00e+00  -1.9 0.00e+00 2.66e-07R  3
  87r-1.0608783e-01 2.20e+00 1.00e+03  -0.1 1.18e+04    -  2.55e-06 3.60e-06f  1
  88 -1.0606306e-01 2.19e+00 3.51e+04  -6.0 8.96e+01    -  2.39e-02 2.12e-03h  1
  89 -1.0601562e-01 2.18e+00 6.86e+04  -6.0 8.64e+01    -  2.12e-03 3.98e-03h  1
iter    objective    inf_pr   inf_du lg(mu)  ||d||  lg(rg) alpha_du alpha_pr  ls
  90 -1.0500019e-01 2.00e+00 2.86e+05  -6.0 8.70e+01    -  3.86e-02 8.39e-02h  1
  91r-1.0500019e-01 2.00e+00 1.00e+03  -0.1 0.00e+00    -  0.00e+00 1.44e-07R  2
  92r-1.0498334e-01 2.00e+00 2.59e+03  -0.1 5.24e+03    -  1.77e-06 5.18e-07f  1
  93 -1.0495964e-01 2.00e+00 2.95e+06  -6.0 8.37e+01    -  8.82e-02 2.09e-03h  1
  94 -1.0485538e-01 1.98e+00 1.29e+07  -6.0 7.92e+01    -  2.10e-03 9.00e-03h  1
  95 -1.0452681e-01 1.92e+00 1.25e+07  -6.0 7.84e+01    -  5.41e-02 2.80e-02h  1
  96 -1.0395551e-01 1.84e+00 1.20e+07  -6.0 1.48e+02    -  4.92e-02 4.05e-02h  1
  97 -1.0284049e-01 1.70e+00 1.10e+07  -6.0 1.07e+02    -  8.17e-02 7.89e-02h  1
  98 -9.9894181e-02 1.35e+00 8.61e+06  -6.0 9.68e+01    -  1.35e-01 2.21e-01h  1
  99 -9.9894081e-02 1.35e+00 8.61e+06  -6.0 6.81e+01    -  2.33e-02 1.88e-05h  1
iter    objective    inf_pr   inf_du lg(mu)  ||d||  lg(rg) alpha_du alpha_pr  ls
 100 -9.9614097e-02 1.31e+00 8.32e+06  -6.0 6.43e+01    -  1.20e-02 3.35e-02h  1
 101 -1.0426662e-01 6.92e-01 4.41e+06  -6.0 6.66e+01    -  1.23e-01 4.70e-01h  1
 102 -1.0542115e-01 5.96e-01 3.85e+06  -6.0 4.34e+01    -  1.08e-01 1.26e-01h  1
 103 -1.0703636e-01 4.61e-01 2.99e+06  -6.0 4.26e+01    -  2.80e-03 2.25e-01h  1
 104 -1.0719367e-01 4.52e-01 3.29e+06  -6.0 8.72e+01    -  2.53e-01 1.95e-02h  1
 105r-1.0719367e-01 4.52e-01 9.99e+02  -0.7 0.00e+00  -2.4 0.00e+00 2.53e-07R  6
 106r-1.0716679e-01 4.49e-01 1.44e+03  -0.7 1.83e+03    -  1.68e-05 5.16e-06f  1
 107 -1.0717428e-01 4.49e-01 2.63e+07  -6.0 5.07e+01    -  3.13e-01 8.67e-04h  1
 108 -1.0972297e-01 3.14e-01 8.43e+09  -6.0 5.28e+01    -  8.69e-04 2.77e-01h  1
 109 -1.1135647e-01 2.73e-01 6.87e+09  -6.0 5.84e+01    -  1.28e-01 1.85e-01h  1
iter    objective    inf_pr   inf_du lg(mu)  ||d||  lg(rg) alpha_du alpha_pr  ls
 110 -1.1137661e-01 2.72e-01 6.85e+09  -6.0 6.46e+01    -  2.17e-01 2.93e-03h  1
 111 -1.1301186e-01 3.83e-01 4.81e+09  -6.0 8.64e+01    -  2.74e-01 2.98e-01h  1
 112 -1.1603533e-01 3.06e-01 9.09e+08  -6.0 8.40e+01    -  4.93e-01 8.11e-01H  1
 113 -1.1578452e-01 2.36e-02 7.98e+05  -6.0 6.16e+00    -  6.41e-01 1.00e+00h  1
 114 -1.1603308e-01 1.30e-03 2.32e+06  -6.0 1.95e+00    -  3.20e-01 1.00e+00h  1
 115 -1.1636644e-01 2.56e-03 2.97e+05  -6.0 1.46e+00    -  8.33e-01 1.00e+00h  1
 116 -1.1827569e-01 7.62e-02 3.82e+04  -6.0 9.03e+00    -  8.72e-01 1.00e+00h  1
 117 -1.3073306e-01 3.84e-01 3.48e+04  -6.0 3.54e+02    -  9.01e-02 1.20e-01h  1
 118 -1.4380453e-01 3.30e-01 3.47e+04  -6.0 1.81e+02    -  8.47e-04 2.69e-01h  1
 119 -1.5124749e-01 5.19e-01 3.47e+04  -6.0 8.13e+01    -  6.07e-04 2.92e-01h  1
iter    objective    inf_pr   inf_du lg(mu)  ||d||  lg(rg) alpha_du alpha_pr  ls
 120 -1.4968200e-01 4.98e-01 3.24e+04  -6.0 4.19e+02    -  6.70e-02 7.51e-02h  1
 121 -1.5158948e-01 5.03e-01 3.88e+04  -6.0 3.20e+02    -  4.44e-02 3.07e-02f  1
 122 -1.5772052e-01 5.23e-01 5.24e+05  -6.0 5.07e+01    -  1.27e-01 7.82e-01h  1
 123 -1.6093546e-01 2.35e-01 1.45e+05  -6.0 4.72e+01    -  5.77e-03 1.00e+00f  1
 124 -1.6310946e-01 4.07e-01 8.19e+04  -6.0 1.01e+02    -  6.67e-01 4.36e-01h  1
 125 -1.6806180e-01 1.82e+00 3.04e+04  -6.0 1.72e+02    -  1.01e-01 6.29e-01h  1
 126 -1.6955037e-01 1.61e+00 2.48e+04  -6.0 2.03e+02    -  2.75e-01 1.84e-01h  1
 127 -1.6950444e-01 1.47e+00 2.25e+04  -6.0 5.24e-01  -2.9 4.48e-02 9.04e-02h  1
 128 -1.7080769e-01 2.12e+00 2.13e+04  -6.0 3.37e+03    -  5.19e-02 5.45e-02h  1
 129 -1.7205819e-01 1.98e+00 1.88e+04  -6.0 6.48e+02    -  5.77e-01 1.16e-01h  1
iter    objective    inf_pr   inf_du lg(mu)  ||d||  lg(rg) alpha_du alpha_pr  ls
 130 -1.7366203e-01 2.55e+00 1.79e+04  -6.0 3.40e+03    -  2.33e-01 4.91e-02h  1
 131 -1.7538591e-01 2.94e+00 1.72e+04  -6.0 4.16e+03    -  3.69e-02 3.78e-02h  1
 132 -1.8080255e-01 6.02e+00 1.50e+04  -6.0 3.49e+03    -  2.36e-01 1.30e-01h  1
 133 -1.8608138e-01 5.73e+00 1.08e+04  -6.0 1.47e+03    -  5.80e-01 2.79e-01h  1
 134 -1.8922249e-01 5.76e+00 9.75e+03  -6.0 2.06e+03    -  1.07e-01 9.93e-02h  1
 135 -1.8963822e-01 5.69e+00 9.61e+03  -6.0 1.85e+03    -  4.19e-01 1.41e-02h  1
 136 -1.9088245e-01 5.52e+00 9.11e+03  -6.0 1.72e+03    -  5.99e-01 5.27e-02h  1
 137 -1.9088448e-01 5.43e+00 8.96e+03  -6.0 2.04e+00  -3.3 3.65e-02 1.58e-02h  1
 138 -1.9087632e-01 5.35e+00 8.82e+03  -6.0 5.27e+00  -3.8 5.73e-02 1.62e-02h  1
 139 -1.9080077e-01 4.92e+00 8.12e+03  -6.0 4.85e+00  -4.3 8.24e-02 7.94e-02h  1
iter    objective    inf_pr   inf_du lg(mu)  ||d||  lg(rg) alpha_du alpha_pr  ls
 140 -1.9067559e-01 4.14e+00 6.83e+03  -6.0 7.70e+00  -4.8 1.54e-01 1.58e-01h  1
 141 -1.9061076e-01 3.53e+00 5.82e+03  -6.0 8.41e+00  -5.2 4.24e-01 1.48e-01h  1
 142 -1.8986212e-01 1.11e-01 3.38e+01  -6.0 7.33e+00  -5.7 4.68e-01 1.00e+00h  1
 143 -1.9007684e-01 7.40e-02 2.94e+01  -6.0 1.71e+01  -6.2 2.52e-01 1.81e-01h  1
 144 -1.9028424e-01 2.84e-02 7.12e+01  -6.0 6.99e+00  -5.8 1.00e+00 4.16e-01f  1
 145 -1.9037146e-01 2.92e-02 4.13e+03  -6.0 8.33e+00  -6.2 4.76e-01 1.28e-01h  1
 146 -1.9058177e-01 1.93e-02 1.55e+04  -6.0 2.34e+01  -6.7 1.00e+00 2.65e-01h  1
 147 -1.9139420e-01 7.32e-02 3.98e+03  -6.0 6.79e+01  -7.2 3.20e-01 4.43e-01h  1
 148 -1.9277047e-01 7.58e-01 6.17e+06  -6.0 2.35e+02  -7.7 1.96e-03 3.53e-01h  1
 149 -1.9551044e-01 1.53e+00 3.00e+06  -6.0 4.34e+02  -8.2 2.53e-01 5.13e-01h  1
iter    objective    inf_pr   inf_du lg(mu)  ||d||  lg(rg) alpha_du alpha_pr  ls
 150 -1.9657236e-01 1.38e+00 2.70e+06  -6.0 1.19e+03  -8.6 1.01e-01 1.00e-01h  1
 151 -1.9991588e-01 1.91e+00 4.85e+05  -6.0 4.00e+02  -8.2 7.32e-01 8.18e-01h  1
 152 -2.0026318e-01 1.64e+00 4.15e+05  -6.0 3.82e+02  -7.8 5.92e-01 1.45e-01h  1
 153 -2.0114929e-01 1.33e+00 2.97e+05  -6.0 3.69e+02  -8.3 3.67e-01 2.81e-01h  1
 154 -2.0545903e-01 2.82e+00 1.07e+05  -6.0 1.00e+03  -8.7 9.06e-01 6.39e-01h  1
 155 -2.0566033e-01 2.09e+00 7.92e+04  -6.0 1.81e+02  -7.4 1.00e-02 2.58e-01h  1
 156 -2.0659185e-01 8.77e-01 2.95e+04  -6.0 1.77e+02  -7.9 3.68e-01 6.27e-01h  1
 157 -2.0719648e-01 7.43e-01 2.09e+05  -6.0 4.24e+02  -8.4 1.09e-02 1.90e-01h  1
 158 -2.1282858e-01 5.50e+00 3.92e+04  -6.0 1.23e+03  -8.8 2.05e-01 8.07e-01h  1
 159 -2.1384012e-01 1.47e+01 3.83e+04  -6.0 4.66e+03  -8.4 9.14e-07 2.24e-02H  1
iter    objective    inf_pr   inf_du lg(mu)  ||d||  lg(rg) alpha_du alpha_pr  ls
 160 -2.1405678e-01 1.42e+01 6.68e+04  -6.0 2.44e+03  -8.0 3.14e-02 7.12e-02h  1
 161 -2.1534304e-01 8.55e+00 2.13e+04  -6.0 6.73e+02  -8.5 4.70e-01 5.66e-01h  1
 162 -2.1925498e-01 5.32e+00 1.27e+04  -6.0 1.21e+03  -8.9 3.28e-01 7.30e-01h  1
 163 -2.1999283e-01 4.76e+00 1.06e+04  -6.0 4.51e+03  -9.4 1.23e-01 1.65e-01h  1
 164 -2.2132059e-01 3.43e+00 6.66e+03  -6.0 1.20e+03  -9.0 2.48e-01 3.74e-01h  1
 165 -2.2174585e-01 2.10e+00 3.75e+03  -6.0 4.16e+02  -8.6 5.93e-02 4.36e-01h  1
 166 -2.2199481e-01 1.51e-01 4.43e+02  -6.0 8.24e+01  -7.2 6.10e-02 9.96e-01h  1
 167 -2.2231614e-01 2.69e-02 2.91e+01  -6.0 5.18e+01  -7.7 5.88e-01 1.00e+00h  1
 168 -2.2237419e-01 1.33e+01 9.53e+01  -6.0 7.59e+01  -7.3 8.09e-02 1.00e+00h  1
 169 -2.2337235e-01 2.12e+01 4.46e+01  -6.0 3.87e+01  -6.9 4.01e-01 5.42e-01h  1
iter    objective    inf_pr   inf_du lg(mu)  ||d||  lg(rg) alpha_du alpha_pr  ls
 170 -2.2351963e-01 9.82e+00 2.22e+01  -6.0 2.07e+01  -7.3 1.00e+00 1.00e+00h  1
 171 -2.2415665e-01 6.93e+00 1.09e+01  -6.0 6.24e+01  -7.8 1.00e+00 1.00e+00h  1
 172 -2.2447994e-01 5.40e+00 8.48e+00  -6.0 3.01e+02  -8.3 3.22e-01 2.23e-01h  1
 173 -2.2558141e-01 3.55e+00 9.33e+02  -6.0 9.58e+02  -8.8 1.56e-01 3.68e-01h  1
 174 -2.2689654e-01 7.33e+00 2.49e+04  -6.0 2.31e+02  -7.4 4.27e-02 1.00e+00h  1
 175 -2.2610388e-01 2.31e+00 1.09e+01  -6.0 8.73e+01  -7.0 1.00e+00 1.00e+00h  1
 176 -2.2711721e-01 8.51e+00 4.33e+01  -6.0 2.18e+02  -7.5 4.89e-01 8.58e-01h  1
 177 -2.2834642e-01 6.96e+00 1.57e+02  -6.0 1.28e+02  -8.0 5.37e-01 9.16e-01h  1
 178 -2.2927192e-01 5.13e+00 9.98e+01  -6.0 2.19e+02  -8.4 2.41e-01 3.61e-01h  1
 179 -2.3034272e-01 4.71e+00 8.80e+01  -6.0 6.89e+02  -8.9 8.03e-01 1.89e-01h  1
iter    objective    inf_pr   inf_du lg(mu)  ||d||  lg(rg) alpha_du alpha_pr  ls
 180 -2.3328776e-01 1.09e+01 6.92e+01  -6.0 1.91e+03  -9.4 2.24e-01 3.94e-01h  1
 181 -2.3463232e-01 1.15e+01 6.83e+01  -6.0 1.11e+04  -9.9 1.47e-02 5.22e-02h  1
 182 -2.3525851e-01 1.13e+01 6.54e+01  -6.0 2.35e+03  -9.5 3.90e-02 7.29e-02h  1
 183 -2.3689718e-01 8.91e+00 5.54e+01  -6.0 7.95e+02  -9.0 1.22e-01 3.68e-01h  1
 184 -2.3818940e-01 4.25e+00 9.07e+01  -6.0 3.17e+02  -8.6 2.94e-05 5.99e-01h  1
 185 -2.3840105e-01 3.95e+00 8.02e+01  -6.0 4.46e+02  -8.2 1.20e-01 7.15e-02h  1
 186 -2.3846940e-01 3.14e+00 5.19e+02  -6.0 7.09e+01  -5.9 4.14e-06 2.07e-01h  1
Error in an AMPL evaluation. Run with "halt_on_ampl_error yes" to see details.
Warning: Cutting back alpha due to evaluation error
 187 -2.3860094e-01 2.44e+00 4.28e+02  -6.0 1.46e+01  -6.4 6.90e-02 2.23e-01h  2
 188 -2.3873686e-01 2.12e+00 3.72e+02  -6.0 1.96e+01  -6.9 3.98e-01 1.32e-01h  1
Error in an AMPL evaluation. Run with "halt_on_ampl_error yes" to see details.
Warning: Cutting back alpha due to evaluation error
 189 -2.3881842e-01 1.99e+00 3.49e+02  -6.0 3.52e+01  -7.4 1.48e-01 6.02e-02h  2
Error in an AMPL evaluation. Run with "halt_on_ampl_error yes" to see details.
Warning: Cutting back alpha due to evaluation error
iter    objective    inf_pr   inf_du lg(mu)  ||d||  lg(rg) alpha_du alpha_pr  ls
 190 -2.3890316e-01 1.88e+00 3.31e+02  -6.0 7.87e+01  -7.9 4.16e-01 5.22e-02h  2
 191 -2.3978842e-01 1.01e+00 1.55e+02  -6.0 2.32e+02  -8.3 3.80e-01 5.32e-01h  1
 192 -2.4014892e-01 9.41e-01 1.40e+02  -6.0 7.24e+02  -8.8 2.47e-01 9.54e-02h  1
Error in an AMPL evaluation. Run with "halt_on_ampl_error yes" to see details.
Warning: Cutting back alpha due to evaluation error
 193 -2.4111498e-01 3.51e+00 1.32e+02  -6.0 6.30e+03  -9.3 8.28e-02 5.79e-02h  2
 194 -2.4226759e-01 4.14e+00 8.86e+01  -6.0 7.15e+02  -8.9 5.83e-01 3.28e-01h  1
 195 -2.4228263e-01 4.51e+00 8.72e+01  -6.0 1.97e+03  -8.4 1.85e-02 1.66e-02h  2
 196 -2.4264785e-01 1.56e+00 2.82e+01  -6.0 8.68e+01  -8.0 1.00e+00 6.76e-01h  1
 197 -2.4294991e-01 1.25e+00 2.25e+01  -6.0 2.53e+02  -8.5 1.00e+00 2.05e-01h  1
 198 -2.4348368e-01 1.09e+00 2.39e+01  -6.0 6.56e+02  -9.0 6.03e-01 1.40e-01h  1
 199 -2.4715989e-01 1.06e+01 2.66e+01  -6.0 2.74e+03  -9.4 8.78e-02 3.34e-01h  1
iter    objective    inf_pr   inf_du lg(mu)  ||d||  lg(rg) alpha_du alpha_pr  ls
 200 -2.4924789e-01 2.48e+01 5.24e+01  -6.0 2.87e+04  -9.9 5.47e-03 2.80e-02h  1
 201 -2.4972663e-01 2.52e+01 5.30e+01  -6.0 1.38e+04 -10.4 1.42e-02 1.18e-02h  1
 202 -2.5023895e-01 2.33e+01 4.92e+01  -6.0 1.96e+03 -10.0 9.88e-02 7.42e-02h  1
 203 -2.5180181e-01 1.92e+01 4.05e+01  -6.0 2.71e+03 -10.4 6.65e-03 1.76e-01h  1
 204 -2.5362572e-01 1.28e+01 2.70e+01  -6.0 1.86e+03 -10.0 4.97e-01 3.33e-01h  1
 205 -2.5365405e-01 1.22e+01 2.56e+01  -6.0 4.31e+02  -8.7 5.04e-02 5.34e-02h  1
 206 -2.5422096e-01 5.15e+00 1.08e+01  -6.0 5.09e+02  -9.2 2.90e-01 5.76e-01h  1
 207 -2.5429248e-01 5.61e-02 1.08e+01  -6.0 2.79e+01  -7.8 5.51e-01 9.89e-01h  1
 208 -2.5437323e-01 4.11e-02 5.85e+00  -6.0 1.36e+02  -8.3 4.04e-01 3.57e-01h  1
 209 -2.5473818e-01 5.10e-01 2.86e+00  -6.0 2.04e+02  -8.8 7.95e-01 8.46e-01h  1
iter    objective    inf_pr   inf_du lg(mu)  ||d||  lg(rg) alpha_du alpha_pr  ls
 210 -2.5566021e-01 3.36e+00 4.61e+02  -6.0 5.14e+02  -9.3 3.99e-01 1.00e+00h  1
 211 -2.5580620e-01 3.39e+00 3.40e+02  -6.0 1.24e+03  -8.8 6.89e-01 1.36e-01h  1
 212 -2.5606646e-01 8.67e-01 2.70e+03  -6.0 5.22e+02  -9.3 6.30e-02 8.48e-01h  1
 213 -2.5617328e-01 5.60e-01 1.59e+03  -6.0 2.70e+02  -8.9 7.22e-01 3.90e-01f  1
 214 -2.5613993e-01 2.80e-01 9.53e+02  -6.0 9.04e+01  -7.6 1.80e-01 5.00e-01h  1
 215 -2.5614866e-01 2.40e-01 8.66e+02  -6.0 7.71e+01  -8.0 8.69e-04 1.44e-01h  1
 216 -2.5615773e-01 2.36e-01 8.54e+02  -6.0 6.03e+02  -8.5 3.18e-03 1.84e-02h  1
 217 -2.5614967e-01 2.34e-01 8.41e+02  -6.0 3.50e+03  -9.0 2.09e-02 7.50e-03h  1
 218 -2.5644001e-01 1.29e+00 3.10e+02  -6.0 6.67e+02  -9.5 3.91e-05 3.94e-01f  1
 219 -2.5669492e-01 3.25e+00 3.27e+02  -6.0 2.39e+03  -9.9 1.67e-01 1.49e-01h  1
iter    objective    inf_pr   inf_du lg(mu)  ||d||  lg(rg) alpha_du alpha_pr  ls
 220 -2.5685349e-01 2.72e+00 3.33e+03  -6.0 1.73e+03 -10.4 3.59e-02 1.63e-01h  1
 221 -2.5687586e-01 3.05e+00 2.25e+03  -6.0 1.67e+04 -10.9 4.02e-02 8.72e-03h  1
 222 -2.5685366e-01 3.38e+01 1.09e+04  -6.0 1.01e+04 -11.4 4.29e-02 1.57e-01f  1
 223 -2.5691381e-01 3.76e+01 9.05e+03  -6.0 8.48e+03 -11.9 1.96e-01 1.73e-01h  1
 224 -2.5697900e-01 3.93e+01 7.47e+03  -6.0 7.05e+03 -11.4 2.30e-01 1.75e-01h  1
 225 -2.5700258e-01 4.20e+01 6.02e+03  -6.0 5.76e+03    -  3.54e-03 1.93e-01h  1
 226 -2.5702179e-01 3.88e+01 5.39e+03  -6.0 4.04e+03    -  5.92e-01 1.08e-01h  1
 227 -2.5701377e-01 3.63e+01 4.80e+03  -6.0 4.27e+03 -11.0 9.23e-02 1.09e-01h  1
 228 -2.5700931e-01 3.50e+01 4.48e+03  -6.0 6.10e+03    -  3.16e-01 6.79e-02h  1
 229 -2.5700731e-01 3.48e+01 4.46e+03  -6.0 8.55e+03    -  8.84e-02 3.87e-03H  1
iter    objective    inf_pr   inf_du lg(mu)  ||d||  lg(rg) alpha_du alpha_pr  ls
 230 -2.5703361e-01 2.67e+01 3.42e+03  -6.0 1.81e+03    -  7.32e-02 2.33e-01h  1
 231 -2.5703465e-01 2.48e+01 3.18e+03  -6.0 3.02e+03    -  9.06e-02 7.10e-02h  1
 232 -2.5701673e-01 2.29e+01 1.47e+03  -6.0 1.81e+03    -  1.33e-01 5.35e-01h  1
 233 -2.5703720e-01 2.35e+01 1.25e+03  -6.0 5.59e+03    -  1.10e-02 1.50e-01h  2
 234 -2.5700507e-01 2.85e+00 1.48e+02  -6.0 1.23e+01  -7.9 2.70e-01 8.79e-01h  1
 235 -2.5699037e-01 1.43e-03 5.26e-02  -6.0 9.97e+00  -8.3 1.00e+00 1.00e+00h  1
 236 -2.5698244e-01 1.11e-02 1.57e-02  -6.0 2.68e+01  -8.8 1.00e+00 1.00e+00h  1
 237 -2.5698250e-01 6.07e-02 8.05e-03  -6.0 6.26e+01  -9.3 1.00e+00 1.00e+00h  1
 238 -2.5697793e-01 2.61e-01 4.36e-02  -6.0 1.20e+02  -9.8 1.00e+00 1.00e+00h  1
 239 -2.5697085e-01 7.08e-01 1.11e-01  -6.0 1.98e+02 -10.3 1.00e+00 1.00e+00h  1
iter    objective    inf_pr   inf_du lg(mu)  ||d||  lg(rg) alpha_du alpha_pr  ls
 240 -2.5697025e-01 1.75e+00 2.61e+01  -6.0 4.42e+03    -  3.22e-01 7.64e-02h  2
 241 -2.5696689e-01 1.89e+00 2.81e+01  -6.0 1.15e+03 -10.7 1.00e+00 1.93e-01h  2
 242 -2.5696411e-01 1.18e+00 1.06e+00  -6.0 2.61e+02    -  9.64e-01 1.00e+00h  1
 243 -2.5696126e-01 1.77e-03 1.64e-03  -6.0 6.74e+00    -  1.00e+00 1.00e+00h  1
 244 -2.5696114e-01 2.73e-03 1.35e-02  -6.0 3.50e+01    -  1.00e+00 1.00e+00H  1
 245 -2.5696109e-01 2.40e-04 5.53e-05  -6.0 3.70e+00    -  1.00e+00 1.00e+00h  1
 246 -2.5696109e-01 6.32e-09 6.93e-10  -6.0 1.92e-02    -  1.00e+00 1.00e+00h  1
 247 -2.5759053e-01 3.25e+00 2.78e+01  -7.5 2.55e+03    -  3.97e-01 2.99e-01f  1
 248 -2.5760136e-01 3.21e+00 9.14e+01  -7.5 2.86e+02  -9.4 3.85e-01 1.28e-02h  1
 249 -2.5782115e-01 4.62e+00 7.95e+01  -7.5 2.09e+03    -  3.72e-01 2.61e-01h  1
iter    objective    inf_pr   inf_du lg(mu)  ||d||  lg(rg) alpha_du alpha_pr  ls
 250 -2.5791204e-01 3.84e+00 6.39e+01  -7.5 2.96e+02  -9.9 1.42e-01 1.71e-01h  1
 251 -2.5802326e-01 2.82e+00 4.71e+01  -7.5 2.11e+02  -9.5 2.71e-01 2.67e-01h  1
 252 -2.5812049e-01 1.95e+00 6.11e+01  -7.5 2.95e+02  -9.9 6.16e-01 3.36e-01h  1
 253 -2.5823664e-01 2.64e+00 3.90e+01  -7.5 4.56e+02 -10.4 6.32e-01 5.10e-01h  1
 254 -2.5826821e-01 1.71e+00 1.94e+01  -7.5 1.54e+03    -  1.20e-01 3.51e-01h  1
 255 -2.5827967e-01 1.56e+00 3.11e+01  -7.5 9.97e+02    -  8.58e-01 1.71e-01h  1
 256 -2.5831222e-01 3.99e+00 4.44e-01  -7.5 8.61e+02    -  1.00e+00 1.00e+00h  1
 257 -2.5829987e-01 9.02e-02 6.29e-01  -7.5 7.22e+01    -  2.54e-01 1.00e+00h  1
 258 -2.5830076e-01 1.11e-01 1.94e-03  -7.5 7.61e+01    -  1.00e+00 1.00e+00h  1
 259 -2.5830068e-01 4.68e-03 3.84e-05  -7.5 1.57e+01    -  1.00e+00 1.00e+00h  1
iter    objective    inf_pr   inf_du lg(mu)  ||d||  lg(rg) alpha_du alpha_pr  ls
 260 -2.5830068e-01 9.11e-08 3.13e-09  -7.5 6.42e-02    -  1.00e+00 1.00e+00h  1
 261 -2.5830177e-01 2.45e-03 7.93e+00  -9.0 1.70e+02    -  7.99e-01 1.76e-01h  1
 262 -2.5830344e-01 2.23e-02 1.20e+00  -9.0 5.65e+01 -10.9 1.00e+00 8.86e-01h  1
 263 -2.5830359e-01 8.11e-03 1.67e-01  -9.0 6.31e+01 -11.4 1.00e+00 8.62e-01h  1
 264 -2.5830362e-01 9.03e-02 5.19e-04  -9.0 8.84e+01 -11.8 1.00e+00 1.00e+00h  1
 265 -2.5830367e-01 8.37e-01 4.67e-05  -9.0 2.69e+02 -12.3 1.00e+00 1.00e+00h  1
 266 -2.5830390e-01 1.03e+01 1.57e-03  -9.0 9.40e+02 -12.8 8.63e-01 1.00e+00h  1
 267 -2.5830397e-01 2.10e+00 3.85e-03  -9.0 1.98e+02 -12.4 1.11e-01 1.00e+00h  1
 268 -2.5830401e-01 3.20e-01 3.61e-03  -9.0 1.63e+02 -11.9 3.26e-01 1.00e+00h  1
 269 -2.5830418e-01 3.32e+00 3.22e-04  -9.0 5.25e+02 -12.4 1.00e+00 1.00e+00h  1
iter    objective    inf_pr   inf_du lg(mu)  ||d||  lg(rg) alpha_du alpha_pr  ls
 270 -2.5830482e-01 4.25e+01 1.50e-02  -9.0 1.86e+03 -12.9 4.11e-01 1.00e+00h  1
 271 -2.5830534e-01 1.02e+01 1.52e-03  -9.0 8.39e+02 -12.5 1.00e+00 1.00e+00h  1
 272 -2.5830666e-01 8.02e+01 3.30e-02  -9.0 4.65e+03 -12.9 4.01e-02 5.07e-01h  1
 273 -2.5830666e-01 7.93e+01 1.13e+00  -9.0 2.88e+03 -12.5 1.24e-01 1.10e-02h  1
 274 -2.5830711e-01 2.44e+00 5.62e+01  -9.0 4.32e+02 -12.1 1.93e-02 1.00e+00h  1
 275 -2.5830827e-01 5.91e+01 5.01e-02  -9.0 2.12e+03 -12.6 6.11e-01 1.00e+00h  1
 276 -2.5830950e-01 1.47e+01 3.94e-02  -9.0 1.00e+03 -12.1 8.74e-02 1.00e+00h  1
 277 -2.5831006e-01 2.04e+01 4.87e-02  -9.0 1.18e+03 -11.7 8.99e-02 1.00e+00h  1
 278 -2.5831178e-01 6.87e+01 3.29e-02  -9.0 6.06e+03 -12.2 2.85e-01 3.54e-01h  1
 279 -2.5831184e-01 6.31e+01 1.40e+00  -9.0 4.30e+03 -12.7 3.71e-01 1.18e-01h  3
iter    objective    inf_pr   inf_du lg(mu)  ||d||  lg(rg) alpha_du alpha_pr  ls
 280 -2.5831397e-01 3.70e+01 6.60e-01  -9.0 1.46e+03 -12.2 5.59e-01 1.00e+00h  1
 281 -2.5831643e-01 4.63e+01 2.98e-01  -9.0 3.39e+03 -12.7 4.71e-01 4.98e-01h  1
 282 -2.5831644e-01 4.63e+01 2.34e-01  -9.0 1.59e+05    -  6.10e-03 1.59e-04h  7
 283 -2.5831649e-01 4.62e+01 1.28e-01  -9.0 4.63e+04    -  1.72e-02 2.19e-03h  5
 284 -2.5831678e-01 4.53e+01 1.63e-01  -9.0 1.72e+04 -13.2 1.31e-02 2.00e-02h  3
 285 -2.5831692e-01 4.49e+01 3.36e-02  -9.0 2.44e+04    -  2.32e-02 8.14e-03h  4
 286 -2.5831838e-01 5.94e+01 3.39e-01  -9.0 5.58e+03 -12.8 1.94e-01 2.46e-01h  1
 287 -2.5831850e-01 5.90e+01 2.60e-01  -9.0 2.13e+04    -  2.91e-02 7.78e-03h  4
 288 -2.5831856e-01 5.88e+01 2.40e-01  -9.0 3.56e+04    -  3.35e-02 2.67e-03h  4
 289 -2.5832090e-01 4.39e+01 4.91e+00  -9.0 2.05e+03 -12.4 1.16e-01 6.51e-01h  1
iter    objective    inf_pr   inf_du lg(mu)  ||d||  lg(rg) alpha_du alpha_pr  ls
 290 -2.5832112e-01 4.34e+01 4.78e+00  -9.0 1.35e+04    -  4.96e-02 1.97e-02h  1
 291 -2.5832116e-01 4.33e+01 4.75e+00  -9.0 3.59e+04    -  1.13e-02 2.59e-03h  5
 292 -2.5832261e-01 3.48e+01 5.75e+00  -9.0 2.42e+03 -12.8 8.17e-02 4.12e-01h  1
 293 -2.5832281e-01 3.26e+01 5.54e+00  -9.0 1.92e+03    -  4.16e-02 7.41e-02h  1
 294 -2.5832337e-01 3.33e+01 4.98e+00  -9.0 8.85e+03    -  9.85e-02 1.04e-01H  1
 295 -2.5832367e-01 3.40e+01 4.54e+00  -9.0 5.86e+03    -  1.37e-01 6.42e-02h  1
 296 -2.5832440e-01 2.75e+01 3.41e+00  -9.0 1.73e+03    -  1.95e-01 2.67e-01h  1
 297 -2.5832503e-01 2.52e+01 7.23e+00  -9.0 1.84e+03    -  5.81e-02 2.47e-01h  1
 298 -2.5832544e-01 2.17e+01 1.55e+01  -9.0 1.64e+03    -  1.12e-02 2.10e-01h  1
 299 -2.5832568e-01 2.03e+01 1.30e+01  -9.0 1.88e+03    -  6.32e-02 1.26e-01h  1
iter    objective    inf_pr   inf_du lg(mu)  ||d||  lg(rg) alpha_du alpha_pr  ls
 300 -2.5832600e-01 1.78e+01 1.24e+01  -9.0 1.65e+03    -  2.41e-02 2.12e-01h  1
 301 -2.5832604e-01 1.78e+01 1.02e+01  -9.0 8.74e+03    -  6.21e-02 7.27e-03h  1
 302 -2.5832591e-01 1.69e+01 1.50e+01  -9.0 4.12e+03    -  9.91e-03 5.81e-02h  1
 303 -2.5832585e-01 1.67e+01 1.49e+01  -9.0 6.74e+03    -  3.81e-02 1.45e-02h  4
 304 -2.5832550e-01 1.81e+01 2.12e+01  -9.0 5.35e+03    -  5.91e-03 7.43e-02h  1
 305 -2.5832551e-01 1.81e+01 2.47e+01  -9.0 6.79e+04    -  1.61e-02 2.07e-04h  4
 306 -2.5832532e-01 1.59e+01 1.58e+01  -9.0 1.48e+03    -  4.16e-01 3.18e-01h  1
 307 -2.5832525e-01 1.51e+01 1.47e+01  -9.0 1.54e+03    -  6.85e-02 6.14e-02h  1
 308 -2.5832525e-01 1.51e+01 1.46e+01  -9.0 2.18e+03    -  2.72e-02 3.78e-03h  1
 309 -2.5832520e-01 1.48e+01 1.44e+01  -9.0 1.19e+04    -  2.62e-02 1.50e-02h  3
iter    objective    inf_pr   inf_du lg(mu)  ||d||  lg(rg) alpha_du alpha_pr  ls
 310 -2.5832515e-01 1.39e+01 1.35e+01  -9.0 5.21e+03    -  6.41e-02 6.12e-02h  2
 311 -2.5832510e-01 1.30e+01 1.24e+01  -9.0 3.03e+03    -  2.00e-01 6.56e-02h  1
 312 -2.5832464e-01 9.73e+00 8.58e+00  -9.0 1.11e+03    -  4.17e-01 3.10e-01h  1
Error in an AMPL evaluation. Run with "halt_on_ampl_error yes" to see details.
Warning: Cutting back alpha due to evaluation error
 313 -2.5832465e-01 9.72e+00 8.47e+00  -9.0 9.01e+03    -  1.81e-02 1.21e-02h  5
 314 -2.5832422e-01 7.17e+00 4.08e+00  -9.0 7.23e+02    -  1.68e-01 5.16e-01h  1
 315 -2.5832416e-01 6.76e+00 3.63e+00  -9.0 1.69e+03    -  8.19e-01 1.12e-01h  4
 316 -2.5832411e-01 6.51e+00 3.32e+00  -9.0 2.15e+03    -  3.17e-01 8.54e-02h  4
 317 -2.5832407e-01 6.33e+00 3.10e+00  -9.0 2.66e+03    -  6.57e-01 6.75e-02h  4
 318 -2.5832391e-01 6.69e+00 2.69e+00  -9.0 2.00e+03    -  9.63e-01 1.31e-01h  3
 319 -2.5832380e-01 6.93e+00 2.44e+00  -9.0 2.39e+03    -  1.37e-01 9.39e-02h  3
iter    objective    inf_pr   inf_du lg(mu)  ||d||  lg(rg) alpha_du alpha_pr  ls
 320 -2.5832359e-01 7.74e+00 2.16e+00  -9.0 2.72e+03    -  3.89e-01 1.13e-01h  2
 321 -2.5832362e-01 7.75e+00 2.16e+00  -9.0 1.79e+04    -  1.81e-02 2.16e-03h  5
 322 -2.5832392e-01 8.79e+00 1.28e+00  -9.0 1.22e+03    -  1.11e-02 4.05e-01h  1
 323 -2.5832385e-01 6.60e+00 9.61e-01  -9.0 9.83e+02    -  3.50e-01 2.50e-01h  3
 324 -2.5832396e-01 6.16e+00 4.63e-01  -9.0 7.98e+02    -  8.95e-01 5.17e-01h  1
 325 -2.5832406e-01 9.55e+00 1.29e-02  -9.0 8.14e+02    -  7.22e-01 1.00e+00H  1
 326 -2.5832422e-01 1.13e+01 3.78e-03  -9.0 6.34e+02    -  1.00e+00 1.00e+00h  1
 327 -2.5832431e-01 5.86e+00 1.11e-02  -9.0 5.48e+02    -  5.32e-02 1.00e+00h  1
 328 -2.5832432e-01 5.87e+00 3.99e-02  -9.0 6.93e+03    -  2.26e-01 6.92e-03h  6
 329 -2.5832433e-01 5.86e+00 4.69e-02  -9.0 5.16e+03    -  4.26e-01 9.32e-03h  6
iter    objective    inf_pr   inf_du lg(mu)  ||d||  lg(rg) alpha_du alpha_pr  ls
 330 -2.5832434e-01 5.80e+00 6.55e-02  -9.0 2.29e+03    -  1.00e+00 4.31e-02h  5
 331 -2.5832462e-01 1.39e+01 2.46e-02  -9.0 1.40e+03    -  1.00e+00 1.00e+00H  1
 332 -2.5832455e-01 1.19e+00 5.02e-03  -9.0 2.30e+02    -  1.00e+00 1.00e+00h  1
 333 -2.5832453e-01 5.88e-01 2.42e-04  -9.0 1.64e+02    -  1.00e+00 1.00e+00h  1
 334 -2.5832453e-01 2.07e-02 8.74e-06  -9.0 3.12e+01    -  1.00e+00 1.00e+00h  1
 335 -2.5832453e-01 3.00e-07 3.18e-10  -9.0 1.23e-01    -  1.00e+00 1.00e+00h  1
 336 -2.5832453e-01 3.05e-10 1.65e-14  -9.0 4.65e-05    -  1.00e+00 1.00e+00h  1

Number of Iterations....: 336

                                   (scaled)                 (unscaled)
Objective...............:  -2.5832452549595769e-01   -2.5832452549595769e-01
Dual infeasibility......:   1.6500689703491389e-14    1.6500689703491389e-14
Constraint violation....:   3.0548265783289508e-10    3.0548265783289508e-10
Complementarity.........:   9.0909092089540634e-10    9.0909092089540634e-10
Overall NLP error.......:   9.0909092089540634e-10    9.0909092089540634e-10


Number of objective function evaluations             = 784
Number of objective gradient evaluations             = 337
Number of equality constraint evaluations            = 789
Number of inequality constraint evaluations          = 785
Number of equality constraint Jacobian evaluations   = 340
Number of inequality constraint Jacobian evaluations = 340
Number of Lagrangian Hessian evaluations             = 336
Total CPU secs in IPOPT (w/o function evaluations)   =    528.109
Total CPU secs in NLP function evaluations           =     13.251

EXIT: Optimal Solution Found.
